Comps = {frontend0, frontend1, backend0, backend1, database0, database1};
mustComps = {frontend0, frontend1};
Flavs = {tiny, medium, large};
Nodes = {n1, n2, n3};
CRes = {CPU, RAM, storage, bwIn, bwOut};
NRes = {ssl, fwall, encr, avail, latency};
Flav = [{medium, large}, {medium, large}, {tiny, medium, large}, {tiny, medium, large}, {large}, {large}];
Uses = array2d(CompFlavs, CompFlavs, [
	0,0,0,0,0,0,0,1,0,0,0,0,
	0,0,0,0,0,0,0,1,0,0,0,0,
	0,0,0,0,1,0,0,0,0,0,0,0,
	0,0,0,0,1,0,0,0,0,0,0,0,
	0,0,0,0,0,0,0,0,0,0,0,0,
	0,0,0,0,0,0,1,0,0,0,0,0,
	0,0,0,0,0,0,1,0,0,0,0,0,
	0,0,0,0,0,0,0,0,0,0,0,0,
	0,0,0,0,0,0,1,0,0,0,0,0,
	0,0,0,0,0,0,1,0,0,0,0,0,
	0,0,0,0,0,0,0,0,0,0,0,0,
	0,0,0,0,0,0,0,0,0,0,0,0,
]);
mayUse = array2d(Comps, CompFlavs, [
	0,0,0,0,0,0,0,0,0,0,0,0,
	0,0,0,0,0,0,0,0,0,0,0,0,
	0,0,1,1,0,1,1,0,1,1,0,0,
	1,1,0,0,0,0,0,0,0,0,0,0,
	0,0,0,0,0,0,0,0,0,0,0,0,
	0,0,0,0,0,0,0,0,0,0,0,0,
]);
MIN_RBOUNDS = 0;
MAX_RBOUNDS = 1000000;

worstBounds = [0, 0, 0, 0, 0, 0, 0, 0, 0, MAX_RBOUNDS];
bestBounds = [MAX_RBOUNDS - i | i in worstBounds];

comReq = array2d(CompFlavs, Res, [
  2, 382, 357, 714, 650, 1, 0, 1, 96, MAX_RBOUNDS,
  2, 438, 293, 912, 591, 1, 0, 1, 97, MAX_RBOUNDS,
  4, 240, 469, 636, 402, 0, 1, 0, 96, MAX_RBOUNDS,
  2, 446, 360, 242, 297, 0, 0, 1, 95, MAX_RBOUNDS,
  2, 324, 234, 677, 211, 1, 0, 1, 96, MAX_RBOUNDS,
  8, 372, 214, 880, 417, 1, 1, 1, 95, MAX_RBOUNDS,
  4, 295, 337, 314, 698, 0, 1, 1, 95, MAX_RBOUNDS,
  8, 436, 458, 205, 831, 1, 0, 1, 96, MAX_RBOUNDS,
  2, 396, 231, 418, 713, 1, 1, 1, 96, MAX_RBOUNDS,
  2, 327, 341, 355, 369, 1, 1, 1, 97, MAX_RBOUNDS,
  2, 356, 313, 417, 956, 1, 0, 0, 96, MAX_RBOUNDS,
  2, 357, 321, 809, 980, 1, 0, 1, 97, MAX_RBOUNDS,
]);

nodeCap = array2d(Nodes0, Res, [bestBounds[r] | r in Res] ++ [
  16, 28525, 356495, 11312, 24741, 1, 1, 1, 98, 0,
  16, 75708, 400329, 24747, 15957, 1, 1, 1, 99, 0,
  16, 91286, 419578, 16360, 14686, 1, 1, 1, 99, 0,
]);

cost = array2d(Nodes0, Res, [
  0, 0, 0, 0, 0, 0, 0, 0, 0, 0, % no node
  11, 7, 20, 0, 0, 0, 0, 0, 0, 0,
  17, 5, 18, 0, 0, 0, 0, 0, 0, 0,
  11, 8, 22, 0, 0, 0, 0, 0, 0, 0,
]);

carb = array2d(Nodes0, Res, [
  0, 0, 0, 0, 0, 0, 0, 0, 0, 0, % no node
  47, 13, 20, 0, 0, 0, 0, 0, 0, 0,
  1, 43, 8, 0, 0, 0, 0, 0, 0, 0,
  15, 4, 40, 0, 0, 0, 0, 0, 0, 0,
]);

costBudget = 33505;
carbBudget = 31669;

depReq = array4d(Comps, Flavs, Comps, Res, [
  if c1 = frontend0 /\ c2 = backend1 /\ r = N(avail) then
    97
  elseif c1 = frontend1 /\ c2 = backend1 /\ r = N(avail) then
    95
  elseif c1 = frontend1 /\ c2 = backend0 /\ r = N(avail) then
    97
  elseif c1 = frontend0 /\ c2 = backend0 /\ r = N(avail) then
    96
  else
    worstBounds[r]
  endif | c1 in Comps, i in Flavs, c2 in Comps, r in Res]);

linkCap = array3d(Nodes0, Nodes0, Res, [
  if ni = 0 \/ nj = 0 then
    bestBounds[r]
  elseif ni = nj /\ r = N(avail) then
    nodeCap[ni,r]
  elseif {ni, nj} = {n1, n3} /\ r = N(avail) then
    98
  elseif {ni, nj} = {n1, n2} /\ r = N(avail) then
    99
  elseif {ni, nj} = {n2, n3} /\ r = N(avail) then
    98
  else
    worstBounds[r]
  endif | ni in Nodes0, nj in Nodes0, r in Res]);

imp = array2d(Comps, Flavs, [
  4, 5, 9,
  2, 3, 4,
  2, 4, 8,
  4, 7, 9,
  1, 5, 6,
  4, 6, 9,
]);

